 $SYSTEM MWORDS=380 MEMDDI=0 $END
 $CONTRL MPLEVL=2 SCFTYP=RHF RUNTYP=OPTIMIZE
  MAXIT=200 ISPHER=1 $END
 $GDDI NGROUP=4 $END
 $SCF DIRSCF=.TRUE. FDIFF=.FALSE. DIIS=.TRUE. $END
 $BASIS GBASIS=CCD $END
 $FMO
    NFRAG=4 NBODY=2
    MPLEVL(1)=2
    INDAT(1)=0,1,-7,
             0,8,-28,
             0,29,-49,
             0,50,-56,
             0
    ICHARG(1)=-1,1,1,-1
    RESPAP=0 RESPPC=-1 RESDIM=100 RCORSD=100
 $END
 $FMOPRP MAXIT=100 $END
 $PCM SOLVNT=C2H5OH IFMO=-1 $END
 $MP2 CODE=IMS SCSPT=SCS SCSOPO=1.752 SCSPAR=0.0 $END
 $DATA
title
C1
 P 15.0
 O 8.0
 H 1.0
 N 7.0
 C 6.0
 $END
 $FMOXYZ
 P   15.0     -4.73028000     -0.64359000      0.01714000
 O   8.0      -6.06503000     -1.27872000      0.02639000
 O   8.0      -3.99629000     -0.43862000      1.29223000
 O   8.0      -4.81208000      0.78529000     -0.72449000
 H   1.0      -4.35353000      1.43461000     -0.21015000
 O   8.0      -3.81638000     -1.52117000     -0.98036000
 H   1.0      -2.90332000     -1.28516000     -0.89496000
 N   7.0      -9.49291000      3.45726000      0.04582000
 C   6.0     -10.40893000      4.58960000     -0.22474000
 H   1.0     -10.64669000      5.09501000      0.70648000
 H   1.0      -9.92584000      5.28645000     -0.90484000
 H   1.0     -11.32284000      4.21085000     -0.67658000
 C   6.0      -9.11854000      2.78843000     -1.23790000
 H   1.0      -8.50230000      1.92823000     -0.99034000
 H   1.0      -8.56494000      3.49788000     -1.84838000
 H   1.0     -10.02832000      2.48777000     -1.75329000
 C   6.0     -10.18384000      2.44313000      0.90398000
 H   1.0     -10.55066000      2.92756000      1.80327000
 H   1.0      -9.46848000      1.65729000      1.13111000
 H   1.0     -11.02440000      2.04664000      0.33835000
 C   6.0      -8.20534000      3.95203000      0.67833000
 H   1.0      -7.49869000      3.14053000      0.57549000
 H   1.0      -7.87945000      4.80187000      0.08090000
 C   6.0      -8.25492000      4.35473000      2.15272000
 H   1.0      -8.60897000      3.52413000      2.76492000
 H   1.0      -8.91829000      5.20720000      2.31808000
 O   8.0      -6.97520000      4.73204000      2.51282000
 H   1.0      -6.45697000      3.92090000      2.56326000
 O   8.0     -10.78130000     -4.15044000     -4.97422000
 H   1.0     -11.46720000     -3.47501000     -4.92505000
 C   6.0     -10.05684000     -4.05565000     -3.80120000
 H   1.0     -10.71519000     -4.01581000     -2.93233000
 H   1.0      -9.43299000     -4.94872000     -3.71560000
 H   1.0      -8.54398000     -2.85393000     -4.75015000
 C   6.0      -9.21516000     -2.78244000     -3.89585000
 H   1.0      -9.88627000     -1.94528000     -4.02736000
 H   1.0      -7.43538000     -0.89882000     -3.83328000
 C   6.0      -7.93374000     -1.00195000     -2.87235000
 H   1.0      -8.83428000     -0.39459000     -2.83681000
 H   1.0      -7.24783000     -0.73922000     -2.06962000
 H   1.0      -6.57063000     -3.16184000     -3.56473000
 C   6.0      -7.14863000     -3.29795000     -2.65429000
 H   1.0      -7.45591000     -4.33610000     -2.56967000
 H   1.0      -6.54369000     -3.02644000     -1.79225000
 N   7.0      -8.34721000     -2.42872000     -2.70252000
 C   6.0      -9.09993000     -2.53505000     -1.41239000
 H   1.0      -9.32911000     -3.57798000     -1.21828000
 H   1.0     -10.00025000     -1.93312000     -1.50238000
 H   1.0      -8.45870000     -2.15244000     -0.62114000
 H   1.0     -13.11030000      1.30358000     -4.68587000
 O   8.0     -13.52642000      2.03866000     -4.25830000
 O   8.0     -12.36575000      0.79452000     -2.43195000
 P   15.0    -13.23705000      1.97303000     -2.67389000
 O   8.0     -12.82878000      3.30696000     -2.18498000
 O   8.0     -14.69514000      1.68629000     -2.04772000
 H   1.0     -14.93949000      0.77916000     -2.16630000
 $END
