 $SYSTEM MEMDDI=0 MWORDS=500 $END
 $CONTRL ISPHER=1 MAXIT=200 RUNTYP=ENERGY SCFTYP=RHF $END
 $SCF DIIS=.TRUE. DIRSCF=.TRUE. FDIFF=.FALSE. $END
 $BASIS GBASIS=CCT $END
 $ELPOT IEPOT=1 WHERE=PDC $END
 $PDC PTSEL=GEODESIC $END
 $DATA
methane
C1
 C       6.0  -3.85163    1.16900    0.00000
 H       1.0  -2.78163    1.16900    0.00000
 H       1.0  -4.20830    0.55006   -0.79663
 H       1.0  -4.20830    2.16836   -0.13770
 H       1.0  -4.20830    0.78857    0.93432
 $END
