#DF-MP2 CALCULATION: 1ip-SPEC

memory 32 Gb

molecule complex {
-1 1
 O       -7.51612712     -4.15685492     -3.42217856
 S       -7.36564424     -4.53792658     -1.98578205
 O       -6.86759298     -3.42786225     -1.11936050
 O       -8.55716228     -5.23471908     -1.42880238
 H       -5.13112061     -5.28702788     -2.38055373
 H       -5.88440692     -6.08454003     -0.93080981
 H       -6.35294704     -6.61139342     -2.60595163
 C       -6.04779838     -5.75542432     -1.97465875
units angstrom
no_reorient
symmetry c1
}

set globals {
    basis cc-pVTZ
    scf_type DF
    freeze_core True
    guess sad
    S_ORTHOGONALIZATION canonical
}

optimize('mp2', dertype='hess')
