 $SYSTEM MWORDS=4000 $END
 $CONTRL SCFTYP=RHF RUNTYP=OPTIMIZE MAXIT=200 ISPHER=1 ICHARG=0 $END
 $SCF DIRSCF=.TRUE. FDIFF=.FALSE. DIIS=.TRUE. $END
 $BASIS GBASIS=CCD $END
 $MP2 CODE=IMS SCSPT=SCS SCSOPO=1.752 SCSPAR=0.0 $END
 $DATA
optimise-c4mim-ac
C1
 C     6.0    -1.5419137732  -0.2875793736   0.0397669945
 C     6.0    -0.0398262189  -0.0496429267   0.2957768191
 N     7.0    -2.0100264623   1.0293838189  -0.3757867281
 C     6.0    -1.0805873948   1.9251040102  -0.1216444040
 N     7.0     0.0907598206   1.3957730195   0.1351910796
 C     6.0     1.1899541900   2.1672304339   0.7026291138
 C     6.0     2.5204576877   1.8947702949   0.0090114889
 C     6.0     3.6646626616   2.7146775837   0.6068697671
 C     6.0     5.0074690052   2.4461788111  -0.0695336580
 C     6.0    -3.4207826642   1.3634722684  -0.3658322238
 H     1.0    -2.0683812649  -0.5928839899   0.9455159045
 H     1.0    -1.7229796618  -1.0296864437  -0.7372891878
 H     1.0    -3.8370892494   1.1977346829   0.6263017679
 H     1.0    -3.9429113689   0.7572697658  -1.1026437691
 H     1.0    -3.5383393945   2.4135056669  -0.6195129208
 H     1.0     0.5915150299  -0.5771950996  -0.4191152127
 H     1.0     0.2560045241  -0.3448401327   1.3040390715
 H     1.0    -1.2482355020   2.9951399958  -0.1828018784
 H     1.0     1.2507630442   1.9354999395   1.7696322987
 H     1.0     0.9143880203   3.2172393762   0.6263497641
 H     1.0     5.7990875427   3.0495160617   0.3797841314
 H     1.0     4.9693074069   2.6908252673  -1.1354764278
 H     1.0     5.2960091111   1.3952537714   0.0205127609
 H     1.0     2.4164713719   2.1235056820  -1.0579887143
 H     1.0     2.7676438737   0.8296661769   0.0793930152
 H     1.0     3.7477326250   2.4975409379   1.6778827030
 H     1.0     3.4228711981   3.7799599581   0.5314246911
 C     6.0    -2.3836522845   4.6031542177   3.1977098991
 C     6.0    -1.8991188577   3.8511762142   1.9648109830
 O     8.0    -1.7653694883   2.6153233800   2.0808249047
 O     8.0    -1.6859414466   4.4999442965   0.9320295738
 H     1.0    -1.7961395235   4.2993853880   4.0699634329
 H     1.0    -3.4252708928   4.3228726870   3.3937866472
 H     1.0    -2.3255103200   5.6816409650   3.0489216973
 $END
