 $SYSTEM MWORDS=500 MEMDDI=0 $END
 $CONTRL SCFTYP=RHF RUNTYP=OPTIMIZE MAXIT=200 ISPHER=1 $END
 $GDDI NGROUP=4 $END
 $STATPT NSTEP=400 $END
 $SCF DIRSCF=.TRUE. FDIFF=.FALSE. DIIS=.TRUE. $END
 $BASIS GBASIS=CCD $END
 $FMO
    NFRAG=4 NBODY=2
    MPLEVL(1)=2
    INDAT(1)=0,1,-25,
             0,26,-32,
             0,33,-39,
             0,40,-64,
             0
    ICHARG(1)=1,-1,-1,1
    RESPAP=0 RESPPC=-1 RESDIM=100 RCORSD=50
 $END
 $MP2 CODE=IMS SCSPT=SCS SCSOPO=1.752 SCSPAR=0.0 $END
 $DATA
c4mim-ac-p4-optimise
C1
 C 6.0
 H 1.0
 N 7.0
 O 8.0
 $END
 $FMOXYZ
 C           6.0   0.1633501699  -9.8925188176  -2.1933294463
 H           1.0   0.2023091482 -10.5970628581  -3.0387974122
 C           6.0   0.7397459679  -8.6435863443  -1.9616827868
 H           1.0   1.3191695692  -7.9890375484  -2.6213315393
 N           7.0  -0.4347179296 -10.2697081980  -0.9917572219
 C           6.0  -0.2658111073  -9.3003223397  -0.0592183661
 H           1.0  -0.5150951290  -9.2993249519   1.0366814830
 N           7.0   0.4608553951  -8.3083853815  -0.6375963617
 C           6.0  -1.0672720967 -11.5775628922  -0.7167768963
 H           1.0  -2.1645898565 -11.4933991621  -0.8432919161
 H           1.0  -0.8144555831 -11.8473769647   0.3261686367
 H           1.0  -0.6469009974 -12.2938850627  -1.4480210180
 C           6.0   0.8849947461  -7.0996453096   0.1044292187
 H           1.0   0.7244631738  -7.3355206301   1.1758508724
 H           1.0   1.9715956811  -6.9621944967  -0.0765834589
 C           6.0   0.0941306072  -5.8542866477  -0.3248589195
 H           1.0  -0.9878298464  -6.0352445738  -0.1448792282
 H           1.0   0.2199920662  -5.6902919778  -1.4190537112
 C           6.0   0.5542004352  -4.6008749096   0.4444466622
 H           1.0   0.4288457656  -4.7762259293   1.5359154148
 H           1.0   1.6424483799  -4.4444748981   0.2717316867
 C           6.0  -0.2254514218  -3.3429735386   0.0223303319
 H           1.0   0.1256064758  -2.4482146610   0.5746672224
 H           1.0  -1.3097809038  -3.4656277818   0.2216949892
 H           1.0  -0.0978352747  -3.1484169795  -1.0623809652
 C           6.0   0.3067141833 -10.5004585444   4.5652231520
 H           1.0  -0.2344775197 -11.4478860353   4.7715153623
 H           1.0  -0.1231517090  -9.6913253736   5.1871281047
 H           1.0   1.3698679851 -10.6635243865   4.8394275732
 C           6.0   0.1985048108 -10.1611511726   3.0581388757
 O           8.0  -0.3343743930  -9.0452017920   2.7478934564
 O           8.0   0.6496574397 -11.0451786903   2.2381126545
 H           1.0   0.1575600767 -12.6893889092  -6.0210092224
 H           1.0  -1.3856763558 -12.7816256566  -5.1300959295
 C           6.0  -0.4482096685 -13.3326663826  -5.3489197791
 H           1.0  -0.6872497927 -14.2843880907  -5.8625076095
 C           6.0   0.3326592593 -13.5814181599  -4.0365273869
 O           8.0   0.6425305360 -14.7771645021  -3.7387483711
 O           8.0   0.6198025952 -12.5289338546  -3.3460789284
 H           1.0   2.1038825978 -11.5476089382  -1.4097678073
 C           6.0   2.3050852334 -11.7727045039  -0.3451535579
 H           1.0   1.7936514895 -11.0807461590   0.3470564827
 H           1.0   3.3974080303 -11.7693402337  -0.1539818443
 H           1.0   1.7570989182 -13.9518878603  -2.1258698847
 C           6.0   1.6762129094 -14.0879668472  -1.0386654632
 N           7.0   1.2387585001 -15.2249459603  -0.4406848037
 N           7.0   1.7836877476 -13.1301904841  -0.0846930252
 H           1.0   1.3389786809 -17.3179026139  -0.6367623754
 H           1.0   1.4111898094 -16.3531302019  -2.1745538967
 C           6.0   0.9107323615 -16.4590563574  -1.1953575202
 C           6.0   1.0579850177 -14.9832087044   0.9208265819
 H           1.0   0.6909856641 -15.7557668550   1.6051425827
 C           6.0   1.4160310254 -13.6532426644   1.1548528594
 H           1.0   1.3571643760 -12.9969232744   2.0329211778
 C           6.0  -0.6029923064 -16.6051460283  -1.4154079207
 H           1.0  -0.9820094249 -15.6380713357  -1.7991092429
 H           1.0  -1.1161739574 -16.8328249506  -0.4541361462
 H           1.0  -0.3632505228 -18.6424669097  -2.1726267518
 H           1.0  -0.4582900516 -17.3597194645  -3.4274426482
 C           6.0  -0.8873394227 -17.7020317287  -2.4601002243
 H           1.0  -2.5893896391 -18.7493053594  -3.3848246317
 C           6.0  -2.3992693192 -17.9747884545  -2.6149227803
 H           1.0  -2.9334506131 -17.0504811592  -2.9242677862
 H           1.0  -2.8374657704 -18.3231784600  -1.6555661324
 $END
