 $SYSTEM MWORDS=4000 $END
 $CONTRL SCFTYP=RHF RUNTYP=OPTIMIZE MAXIT=200 ISPHER=1 ICHARG=0 $END
 $SCF DIRSCF=.TRUE. FDIFF=.FALSE. DIIS=.TRUE. $END
 $BASIS GBASIS=CCD $END
 $MP2 CODE=IMS SCSPT=SCS SCSOPO=1.752 SCSPAR=0.0 $END
 $DATA
optimise-c4mim-ac
C1
 C      6.0     -1.4123773211   -0.2128501023    0.1417914186
 C      6.0      0.0069909153    0.0401414438    0.6934098709
 N      7.0     -1.7886931290    1.1007584543   -0.3959268726
 C      6.0     -0.8135680724    1.9459425918   -0.2226164284
 N      7.0      0.2355641986    1.4565568098    0.3676980315
 C      6.0      1.4567975335    2.1943924450    0.7137241392
 C      6.0      2.6696505609    1.7685118651   -0.1065666556
 C      6.0      3.9159409952    2.5748282420    0.2625653559
 C      6.0      5.1453817035    2.1606980298   -0.5407276632
 C      6.0     -3.0727446985    1.3687508651   -1.0265327438
 H      1.0     -2.1167395309   -0.5146169202    0.9147156081
 H      1.0     -1.4263081057   -0.9572233488   -0.6523951833
 H      1.0     -3.8784368976    1.1742588308   -0.3204809828
 H      1.0     -3.1964402876    0.7315858382   -1.9008561424
 H      1.0     -3.1131722737    2.4102609919   -1.3356115431
 H      1.0      0.7546987508   -0.5850633036    0.2126019283
 H      1.0      0.0702042798   -0.1039932770    1.7705367231
 H      1.0     -0.8739143030    2.9772285527   -0.5423075434
 H      1.0      1.6338818794    2.0478048166    1.7798138822
 H      1.0      1.2437454267    3.2524992747    0.5646449943
 H      1.0      6.0111966926    2.7592925722   -0.2559167879
 H      1.0      4.9830175248    2.2975808240   -1.6124917240
 H      1.0      5.3949889611    1.1109313264   -0.3693475946
 H      1.0      2.4433982025    1.8953836551   -1.1697033824
 H      1.0      2.8662369072    0.7041503516    0.0506647181
 H      1.0      4.1205192190    2.4551825488    1.3310853053
 H      1.0      3.7177086099    3.6396329197    0.1039269356
 C      6.0     -3.2633454451    4.7661970551    3.8875838141
 C      6.0     -2.5401784833    4.0148350480    2.7360779691
 O      8.0     -2.1860704003    2.8631906496    3.0001717158
 O      8.0     -2.4286390853    4.6478987178    1.6833337189
 H      1.0     -2.9252979962    4.4110296515    4.8651216124
 H      1.0     -4.3404181466    4.5678138918    3.8171909497
 H      1.0     -3.1205568396    5.8473253940    3.8053259413
 $END
